3 24 1 10
6 10 8 8 20 13 9 18 15 15 9 1 19 4 15 3 10 15 2 8 8 12 10 19 
2.27 6.11 4.28 3.77 1.68 0.35 3.95 4.1 4.22 5.33 5.39 0.71 5.96 2.05 5.84 1.23 3.39 4.36 3.65 7.66 6.99 4.41 2.9 5.71 
4 4 4 4 4 4 4 4 4 4 4 4 4 4 4 4 4 4 4 4 4 4 4 4 
5.9 6.08 7.95 2.53 7.4 0.59 4.39 4.23 2.44 1.07 4.98 0.72 5.47 1.41 4.22 4.77 2.73 4.43 3.64 5.41 0.65 5.59 2.33 6.09 
1 1 1 1 1 1 1 1 1 1 1 1 1 1 1 1 1 1 1 1 1 1 1 1 
1 1 1 1 1 1 1 1 1 1 1 1 1 1 1 1 1 1 1 1 1 1 1 1 
1 1 1 1 1 1 1 1 1 1 1 1 1 1 1 1 1 1 1 1 1 1 1 1 
0.01 0.01 0.01 0.01 0.01 0.01 0.01 0.01 0.01 0.01 0.01 0.01 0.01 0.01 0.01 0.01 0.01 0.01 0.01 0.01 0.01 0.01 0.01 0.01 
0.02 0.02 0.02 0.02 0.02 0.02 0.02 0.02 0.02 0.02 0.02 0.02 0.02 0.02 0.02 0.02 0.02 0.02 0.02 0.02 0.02 0.02 0.02 0.02 
1 1 1 1 1 1 1 1 1 1 1 1 1 1 1 1 1 1 1 1 1 1 1 1 
